20	5
0	8	4	2	8	6	5	3	7	1
1	5	18	20	14	16	19
2	4	18	20	14	10
3	4	10	12	11	18
4	7	18	16	20	17	19	15	14
5	3	12	10	18
6	4	18	12	10	11
7	3	17	20	18
8	3	19	14	20
9	2	13	17
10	2	16	17
11	3	9	14	16
12	4	14	9	16	19
13	1	20
14	1	21
15	1	21
16	1	21
17	1	21
18	1	21
19	1	21
20	1	21
21	0
0	0	0	0	0	0	0
1	4	2	1	2	2	2
2	7	5	5	4	2	4
3	3	4	4	4	2	2
4	2	4	4	4	3	2
5	6	3	3	4	2	1
6	6	2	2	1	1	5
7	6	1	2	2	5	5
8	7	4	2	3	3	1
9	9	4	1	4	2	2
10	3	5	2	1	1	2
11	2	2	4	4	1	1
12	7	2	2	4	2	3
13	10	5	4	2	2	4
14	2	3	4	4	3	5
15	5	2	4	5	1	3
16	7	4	1	3	1	5
17	7	4	4	2	3	1
18	6	4	5	4	2	4
19	10	5	1	3	4	3
20	10	3	5	1	2	4
21	0	0	0	0	0	0
5	5	5	5	5
